(set-info :smt-lib-version 2.6)
(set-logic QF_SLIA)
(set-info :source |
Generated by: Dmitry Blotsky1, Federico Mora, Murphy Berzish, Yunhui Zheng, Ifaz Kabir, Vijay Ganesh, Zhengyang Lu
Generated on: 2018-01-24
Generator: StringFuzz
Application: Evaluate string solvers
Target solver: Z3str3, CVC4, Z3str2, Norn
Publications: Blotsky, D., Mora, F., Berzish, M., Zheng, Y., Kabir, I., & Ganesh, V. (2018). Stringfuzz: A fuzzer for string solvers. In CAV 2018.
Description: transformed by StringFuzz, a modular string and regex fuzzer, from an industrial benchmark
|)
(set-info :license "https://creativecommons.org/licenses/by/4.0/")
(set-info :category "random")
(set-info :status unknown)

(declare-const x String)
(assert (= x "]Zy%ky:>ANU#8f(E/'\x0b'iZ8""'Hh'\t'N)l' 'N#n+<"",vZAwko_:(qZt'\t'y""T'\r'y%kyI%%S]vp-SH8hDO)ZLED#sy%b0TyCAWHQL5uy%kyV?9q|S)=jbc!!]y%#y6e%%@,s8~F@4Kr>-60'\x0c'9' ''\t'SJcI?XMYZu2,y%ky=5f8Uy%ky3E"))
(assert (str.in_re x (re.* (re.union (str.to_re "l4yX8%%u'\r';u(hqnjs-vfBGs^Vc") (str.to_re "_1G")))))
(check-sat)

(exit)
